problems/csplib-prob015/SchursLemma-models/compact/O0/minion/model_1_1-3-11-solution000001.eprime-solution
language ESSENCE' 1.0

letting boxes_PartitionAsSet_ExplicitR2_Occurrence be
        [[false, false, false, false, false, false, false, false, true, true, false; int(1..11)],
         [false, false, true, false, true, true, true, false, false, false, false; int(1..11)],
         [true, true, false, true, false, false, false, true, false, false, true; int(1..11)]; int(1..3)]
