problems/csplib-prob015/SchursLemma-models/noch/O2/lingeling/model_1_1-3-11-solution000001.solution
language Essence 1.3

letting boxes be partition({1, 2, 6, 10}, {3, 5, 7, 9, 11}, {4, 8})
